27 69 1 50 76 77 28 
52 31 10 32 90 63 64 49 36 47 48 19 11 62 88 7 82 8 46 45 17 86 16 61 85 100 98 93 59 94 
70 30 66 65 71 35 34 78 12 40 2 57 15 41 22 23 67 39 54 80 68 3 79 81 9 20 51 33 29 24 55 25 26 
6 96 99 95 13 
97 92 37 91 44 38 14 43 42 87 73 72 74 75 56 4 21 58 
53 18 83 84 5 60 89 
